(set-logic HORN)
(set-info :source |
    Benchmark: C_VC
    Output by Princess (http://www.philipp.ruemmer.org/princess.shtml)
|)
(set-info :status unknown)
(declare-fun inv_main10 (Int Int) Bool)
(declare-fun inv_main4 (Int Int) Bool)
(declare-fun inv_main9 (Int Int) Bool)
(assert (forall ((var0 Int)) (forall ((var1 Int)) (inv_main4 var0 var1 ) ) ) )
(assert (forall ((var0 Int)) (forall ((var1 Int)) (or (not (and (inv_main10 var0 var1 ) (not (<= 0 (+ (+ (* 1000000 var1 ) (* (- 1) var0 ) ) (- 1) ) ) ) ) ) (inv_main9 var0 var1 ) ) ) ) )
(assert (forall ((var0 Int)) (forall ((var1 Int)) (forall ((var2 Int)) (or (not (and (inv_main4 var1 var2 ) (and (<= 0 var0 ) (<= 0 (+ 10 (* (- 1) var0 ) ) ) ) ) ) (inv_main10 0 var0 ) ) ) ) ) )
(assert (forall ((var0 Int)) (forall ((var1 Int)) (or (not (and (inv_main10 var0 var1 ) (<= 0 (+ (+ (* 1000000 var1 ) (* (- 1) var0 ) ) (- 1) ) ) ) ) (inv_main10 (+ var0 var1 ) var1 ) ) ) ) )
(assert (forall ((var0 Int)) (forall ((var1 Int)) (not (and (inv_main9 var0 var1 ) (not (= (+ var0 (* (- 1000000) var1 ) ) 0 ) ) ) ) ) ) )
(check-sat)
